% demand
num_movements = 23;
loading_factor = [1300, 1800, 900, 1850, 1550, 1650, 900, 850, 1850, 1900, 1000, 1400, 800, 1500, 1000, 950, 900, 1950, 1000, 1250, 1700, 1950, 1150];
pickup_time = [0, 0, 0, 1, 1, 1, 2, 3, 3, 3, 4, 4, 6, 7, 7, 7, 8, 8, 8, 8, 10, 11, 11];
delivery_time = [1, 2, 1, 3, 3, 3, 3, 8, 8, 5, 5, 5, 8, 10, 8, 8, 10, 9, 10, 12, 12, 12, 12];

% transporter definition
total_capacity = 7000;
num_decks = 3;
capacity = [3000, 1000, 3000];

% ways out of decks
num_ways_out = 1;
paths_out = array3d(decks, ways_out, decks, [
% ways out of deck d1
2, 3, 0, 

% ways out of deck d2
3, 0, 0, 

% ways out of deck d3
0, 0, 0,	

]);

